System                                  
   1.0000000000000000     
    10.9872599999999991    0.0000000000000000    0.0000000000000000
     0.0000000000000000   10.9872599999999991    0.0000000000000000
     0.0000000000000000    0.0000000000000000   10.9872599999999991
   Si
    64
Direct
  0.1511266815766492  0.2567824240738342  0.4524027908516570
  0.4077667214199427  0.6638665942288638  0.6258497939008418
  0.8799682872694529  0.0629320350340846  1.0358509006281440
  0.1621273836231228  0.1502197918786421  0.1263076216968257
  0.4474656289592394  0.5411295101945524  0.1251669995019128
  0.8695331908406535  0.7991442339400713  0.7699615104080206
  0.4116095603811983  0.2938532799882835  0.6454038540139240
  0.9687488899737213  0.2740852969992440  0.5670839313372005
  0.6410596159737167  0.1993396345084765  0.0027849671168420
  0.4213997414395234  0.0066676967959644  0.2458234989687267
  0.9011239985459745  0.7656330041987968  0.2274667493587842
  0.1448057280291309  0.6299380734203339  0.4408733989295338
  0.5469416155002914  0.4106920197038117  0.3804909328719348
  0.6195054246828658  0.2352761999970272  0.6792572045195574
  0.2741340391283985  0.9330098197025241  0.8568995580080184
  0.9667114621631397  0.1479398727530369  0.8604536224249874
 -0.0129124736505150  0.3518907784431590  0.7674650797451688
  0.2872952399694058  0.2996138093299720  0.8300192196000444
  0.8757393102638640  0.3898588738548697  0.2441102555827238
  0.6839493036288645  0.9936996843037733  0.9755219646392106
  0.5459741329916665  0.9001586974995778  0.1074075471399882
  0.6918083579073301  0.9206199520255413  0.5888015783198287
  0.8053384440076462  0.7279831053453341  0.5840522097743985
  0.0504170450722992  0.9303408522183141  0.5514845038468215
  0.2116158185717444  0.9636527550169045  0.2656758309769143
  0.8819658420898983  1.0704036245468087  0.5182984301042023
  0.8282953603003140  0.4947205673108939  0.7906847304568955
  0.0363736352144451  0.7646826607485857  0.9016358339611518
  0.3973586802501620  0.0924875936013702  0.5746094963388397
  0.6790993157578927  0.2630022870597472  0.4652334656499925
  0.1054778503517307  0.5834479001938683  0.9964261130625458
  0.5031000824334514  0.6975037519923870  0.8233321456341226
  0.4343372540231428  0.0426810693994345  0.7860390854802417
  0.6944220810611886  0.7789365854615108  0.8763192049108286
  0.2036965382683662  0.6265535023138135  0.6567459370284470
  0.9646260241963249  0.7565549487577702  0.4344316385490453
  0.1437107968622884  0.8207460870713799  0.7187389430551722
  0.1683928924329957  0.1126866294513984  0.8958792214741838
  0.0587082859801073  0.2941090408979255  0.2576433407613563
  0.8377909197756418  0.3990462389924422  0.4632744979122816
  0.4417691854974253  0.2133956479759251 -0.0654734774095360
  0.3977347392959992  0.8019717462732060  0.9829225935036672
  0.2737841708529985  0.7606797056866058  0.3065735814287076
  0.7780415296427434  0.2044998392560473  0.1715906364055216
  0.0236427890711655  0.9008597705067299  0.0846082537957094
  0.5125229199091442  0.4844102225871077  0.5753738436643756
  0.4580956767491518  0.7649022469531341  0.4205816262349584
  0.1659583988537394  0.4711249183590310  0.8190455935019756
  0.9102265187288676  0.5698146168634642  0.1183410754112944
  0.6858293460171244  0.7478774567104993  0.1842351901158198
  0.6733305011348638  0.3495957736976853  0.8560161988801821
  0.7249674001188541  0.5296164352375473  0.6018452929055810
  0.3835502416240679  0.3780035921804263  0.2492138765084511
  0.6424577337751477  1.0288926702771262  0.7635852801723962
  0.5562928281733179  0.5110266954964841  0.9377340768440328
  0.7323570179125114  0.6120639515534991  0.0136895100908035
  0.7226727729086755  0.0859966032762410  0.3487804245502127
  0.5640851797756502  0.6094482665184734  0.2950368015072460
  0.5336402788090794  0.9758412642265659  0.4428069341492649
  0.3730417590316726  0.1933747515817521  0.1390369568467735
  0.8644209571886131  0.0107365873655785  0.7228196352317904
  0.2107698775206124  0.0531161388588617  0.4671667467203397
  0.2801551499681382  0.6630815014246642  0.1032696304982484
  0.2000443283731747  0.4337791338790073  0.3452921729008774

  0.21784549E-02 -0.68457844E-03  0.38637830E-02
  0.41900256E-02 -0.21447910E-03  0.20905517E-02
 -0.36482248E-02 -0.30708643E-02  0.20890121E-03
 -0.13143563E-02  0.16561758E-02 -0.52272058E-02
  0.68404493E-03 -0.96657429E-03 -0.22840707E-02
 -0.28534719E-02  0.52102085E-02  0.15891502E-02
  0.15216646E-02 -0.25357418E-02 -0.54034231E-03
  0.13697832E-02  0.42255952E-03 -0.10931644E-02
  0.46425886E-02 -0.42080839E-02 -0.58146609E-02
  0.18869033E-02  0.26775707E-02 -0.13787617E-02
  0.26837122E-02 -0.18717705E-02 -0.95546835E-03
  0.21513170E-02 -0.51171001E-03 -0.21180125E-03
 -0.13954776E-02 -0.30976202E-02  0.29268300E-02
  0.32219695E-04  0.12335793E-02  0.26360055E-03
 -0.20681955E-02 -0.40100877E-03 -0.23656473E-02
 -0.22091222E-02  0.37519350E-02 -0.32655384E-02
 -0.19118090E-02  0.70017051E-03  0.11852787E-02
 -0.39730889E-02  0.32791564E-02 -0.12297660E-02
 -0.17787742E-02 -0.29886149E-03  0.41033409E-02
 -0.13299353E-02 -0.12245978E-02  0.91883315E-03
  0.19698734E-02 -0.27874366E-02 -0.15197864E-02
 -0.62991219E-03  0.98398028E-03  0.58468929E-03
 -0.31985301E-02 -0.28167766E-03  0.13291555E-02
  0.16952568E-03  0.27325943E-02  0.30058748E-02
  0.25758992E-02  0.45790901E-02  0.22642159E-02
 -0.31009841E-02  0.13502183E-02  0.38094160E-02
  0.11896375E-02 -0.96433853E-03 -0.47268528E-03
  0.76264762E-03  0.27096495E-04  0.76659920E-03
 -0.18730634E-02 -0.42324373E-03  0.39844326E-02
 -0.14384545E-02 -0.32650984E-02 -0.27804955E-02
 -0.18521014E-02  0.32423843E-02 -0.28186235E-03
  0.41479639E-02  0.53124645E-02  0.28545800E-02
 -0.19515251E-02 -0.19161163E-02 -0.16677463E-02
 -0.19192962E-03  0.11254406E-02  0.14175978E-02
 -0.69943657E-04 -0.36846860E-02  0.38744930E-02
  0.25039052E-02  0.13033932E-02  0.32674232E-02
  0.34489580E-02  0.86628879E-03  0.43110046E-03
  0.23138288E-02 -0.98064562E-03 -0.12315531E-02
  0.19928041E-03  0.40080056E-03 -0.33941001E-02
 -0.25634445E-02 -0.11795904E-02 -0.28566446E-02
 -0.79902569E-03  0.38089365E-03  0.22733263E-02
 -0.36149239E-02 -0.19231579E-02  0.15549446E-02
  0.14208379E-02  0.24102624E-02  0.50636670E-02
  0.18115622E-02 -0.43897805E-02 -0.31123610E-02
 -0.11899582E-02 -0.38247983E-02  0.24493803E-02
  0.34971983E-02  0.47375564E-02  0.23494365E-03
  0.76235441E-02  0.13440903E-02  0.32725235E-03
  0.25239103E-02 -0.39405824E-02 -0.10756524E-02
  0.32150849E-03  0.45372427E-03 -0.24666297E-02
  0.23211512E-02  0.16348277E-03  0.34739315E-03
 -0.43504805E-04 -0.39233678E-02  0.30096682E-02
  0.87312661E-03  0.15838860E-02 -0.23866876E-02
 -0.11284435E-02 -0.10677613E-02 -0.96086512E-02
 -0.10460336E-02  0.11885090E-02 -0.36517049E-02
 -0.18966579E-02  0.27667828E-03 -0.35133711E-02
  0.28569254E-02  0.19230096E-02 -0.89770593E-03
 -0.12666038E-02 -0.61647219E-02  0.10754715E-02
 -0.18375467E-02 -0.18450501E-02 -0.14501372E-02
 -0.10920282E-02  0.22423656E-02 -0.72131291E-02
 -0.48584616E-02  0.38243843E-02 -0.39024544E-02
 -0.25694002E-02  0.33351423E-02  0.61693901E-02
 -0.61907768E-03 -0.56820656E-03  0.56332910E-02
 -0.19388665E-02 -0.22155126E-03  0.69560272E-02
 -0.61912162E-03 -0.22813905E-02 -0.19848176E-02

           1
   1.0000000000000000     
  0.68441371E+01  0.64240101E-03  0.70137659E-03  0.68434652E+01
  0.15132495E+00  0.25672012E+00  0.45275445E+00
  0.40814807E+00  0.66384707E+00  0.62604006E+00
  0.87963625E+00  0.62652542E-01  0.35869914E-01
  0.16200776E+00  0.15037053E+00  0.12583187E+00
  0.44752789E+00  0.54104154E+00  0.12495912E+00
  0.86927348E+00  0.79961844E+00  0.77010615E+00
  0.41174805E+00  0.29362249E+00  0.64535468E+00
  0.96887356E+00  0.27412376E+00  0.56698444E+00
  0.64148216E+00  0.19895664E+00  0.22557486E-02
  0.42157148E+00  0.69113946E-02  0.24569801E+00
  0.90136826E+00  0.76546265E+00  0.22737979E+00
  0.14500153E+00  0.62989150E+00  0.44085412E+00
  0.54681461E+00  0.41041009E+00  0.38075732E+00
  0.61950836E+00  0.23538847E+00  0.67928120E+00
  0.27394580E+00  0.93297332E+00  0.85668425E+00
  0.96651040E+00  0.14828135E+00  0.86015641E+00
  0.98691352E+00  0.35195450E+00  0.76757296E+00
  0.28693363E+00  0.29991226E+00  0.82990729E+00
  0.87557742E+00  0.38983167E+00  0.24448372E+00
  0.68382826E+00  0.99358823E+00  0.97560559E+00
  0.54615342E+00  0.89990500E+00  0.10726922E+00
  0.69175103E+00  0.92070951E+00  0.58885479E+00
  0.80504733E+00  0.72795747E+00  0.58417318E+00
  0.50432474E-01  0.93058956E+00  0.55175808E+00
  0.21185026E+00  0.96406952E+00  0.26588191E+00
  0.88168361E+00  0.70526514E-01  0.51864514E+00
  0.82840363E+00  0.49463280E+00  0.79064171E+00
  0.36443047E-01  0.76468513E+00  0.90170561E+00
  0.39718820E+00  0.92449072E-01  0.57497214E+00
  0.67896840E+00  0.26270512E+00  0.46498040E+00
  0.10530928E+00  0.58374300E+00  0.99640046E+00
  0.50347761E+00  0.69798726E+00  0.82359195E+00
  0.43415964E+00  0.42506675E-01  0.78588730E+00
  0.69440461E+00  0.77903902E+00  0.87644823E+00
  0.20369017E+00  0.62621814E+00  0.65709857E+00
  0.96485392E+00  0.75667358E+00  0.43472902E+00
  0.14402470E+00  0.82082493E+00  0.71877818E+00
  0.16860348E+00  0.11259738E+00  0.89576713E+00
  0.58726423E-01  0.29414552E+00  0.25733443E+00
  0.83755761E+00  0.39893888E+00  0.46301450E+00
  0.44169646E+00  0.21343031E+00  0.93473343E+00
  0.39740573E+00  0.80179671E+00  0.98306412E+00
  0.27391349E+00  0.76089907E+00  0.30703445E+00
  0.77820641E+00  0.20410031E+00  0.17130737E+00
  0.23534486E-01  0.90051166E+00  0.84831183E-01
  0.51284122E+00  0.48484141E+00  0.57539523E+00
  0.45878953E+00  0.76502458E+00  0.42061141E+00
  0.16618811E+00  0.47076627E+00  0.81894769E+00
  0.91025578E+00  0.56985591E+00  0.11811658E+00
  0.68604060E+00  0.74789234E+00  0.18426681E+00
  0.67332654E+00  0.34923869E+00  0.85629012E+00
  0.72504687E+00  0.52976059E+00  0.60162807E+00
  0.38344754E+00  0.37790641E+00  0.24833935E+00
  0.64236253E+00  0.29000842E-01  0.76325292E+00
  0.55612020E+00  0.51105188E+00  0.93741431E+00
  0.73261704E+00  0.61223897E+00  0.13607806E-01
  0.72255749E+00  0.85435524E-01  0.34887831E+00
  0.56391794E+00  0.60928034E+00  0.29490482E+00
  0.53354089E+00  0.97604535E+00  0.44215043E+00
  0.37259957E+00  0.19372283E+00  0.13868178E+00
  0.86418710E+00  0.11040134E-01  0.72338114E+00
  0.21071353E+00  0.53064424E-01  0.46767946E+00
  0.27997868E+00  0.66306134E+00  0.10390273E+00
  0.19998798E+00  0.43357149E+00  0.34511153E+00
  0.00000000E+00  0.00000000E+00  0.00000000E+00
  0.00000000E+00  0.00000000E+00  0.00000000E+00
  0.00000000E+00  0.00000000E+00  0.00000000E+00
  0.00000000E+00  0.00000000E+00  0.00000000E+00
  0.00000000E+00  0.00000000E+00  0.00000000E+00
  0.00000000E+00  0.00000000E+00  0.00000000E+00
  0.00000000E+00  0.00000000E+00  0.00000000E+00
  0.00000000E+00  0.00000000E+00  0.00000000E+00
  0.00000000E+00  0.00000000E+00  0.00000000E+00
  0.00000000E+00  0.00000000E+00  0.00000000E+00
  0.00000000E+00  0.00000000E+00  0.00000000E+00
  0.00000000E+00  0.00000000E+00  0.00000000E+00
  0.00000000E+00  0.00000000E+00  0.00000000E+00
  0.00000000E+00  0.00000000E+00  0.00000000E+00
  0.00000000E+00  0.00000000E+00  0.00000000E+00
  0.00000000E+00  0.00000000E+00  0.00000000E+00
  0.00000000E+00  0.00000000E+00  0.00000000E+00
  0.00000000E+00  0.00000000E+00  0.00000000E+00
  0.00000000E+00  0.00000000E+00  0.00000000E+00
  0.00000000E+00  0.00000000E+00  0.00000000E+00
  0.00000000E+00  0.00000000E+00  0.00000000E+00
  0.00000000E+00  0.00000000E+00  0.00000000E+00
  0.00000000E+00  0.00000000E+00  0.00000000E+00
  0.00000000E+00  0.00000000E+00  0.00000000E+00
  0.00000000E+00  0.00000000E+00  0.00000000E+00
  0.00000000E+00  0.00000000E+00  0.00000000E+00
  0.00000000E+00  0.00000000E+00  0.00000000E+00
  0.00000000E+00  0.00000000E+00  0.00000000E+00
  0.00000000E+00  0.00000000E+00  0.00000000E+00
  0.00000000E+00  0.00000000E+00  0.00000000E+00
  0.00000000E+00  0.00000000E+00  0.00000000E+00
  0.00000000E+00  0.00000000E+00  0.00000000E+00
  0.00000000E+00  0.00000000E+00  0.00000000E+00
  0.00000000E+00  0.00000000E+00  0.00000000E+00
  0.00000000E+00  0.00000000E+00  0.00000000E+00
  0.00000000E+00  0.00000000E+00  0.00000000E+00
  0.00000000E+00  0.00000000E+00  0.00000000E+00
  0.00000000E+00  0.00000000E+00  0.00000000E+00
  0.00000000E+00  0.00000000E+00  0.00000000E+00
  0.00000000E+00  0.00000000E+00  0.00000000E+00
  0.00000000E+00  0.00000000E+00  0.00000000E+00
  0.00000000E+00  0.00000000E+00  0.00000000E+00
  0.00000000E+00  0.00000000E+00  0.00000000E+00
  0.00000000E+00  0.00000000E+00  0.00000000E+00
  0.00000000E+00  0.00000000E+00  0.00000000E+00
  0.00000000E+00  0.00000000E+00  0.00000000E+00
  0.00000000E+00  0.00000000E+00  0.00000000E+00
  0.00000000E+00  0.00000000E+00  0.00000000E+00
  0.00000000E+00  0.00000000E+00  0.00000000E+00
  0.00000000E+00  0.00000000E+00  0.00000000E+00
  0.00000000E+00  0.00000000E+00  0.00000000E+00
  0.00000000E+00  0.00000000E+00  0.00000000E+00
  0.00000000E+00  0.00000000E+00  0.00000000E+00
  0.00000000E+00  0.00000000E+00  0.00000000E+00
  0.00000000E+00  0.00000000E+00  0.00000000E+00
  0.00000000E+00  0.00000000E+00  0.00000000E+00
  0.00000000E+00  0.00000000E+00  0.00000000E+00
  0.00000000E+00  0.00000000E+00  0.00000000E+00
  0.00000000E+00  0.00000000E+00  0.00000000E+00
  0.00000000E+00  0.00000000E+00  0.00000000E+00
  0.00000000E+00  0.00000000E+00  0.00000000E+00
  0.00000000E+00  0.00000000E+00  0.00000000E+00
  0.00000000E+00  0.00000000E+00  0.00000000E+00
  0.00000000E+00  0.00000000E+00  0.00000000E+00
  0.00000000E+00  0.00000000E+00  0.00000000E+00
  0.00000000E+00  0.00000000E+00  0.00000000E+00
  0.00000000E+00  0.00000000E+00  0.00000000E+00
  0.00000000E+00  0.00000000E+00  0.00000000E+00
  0.00000000E+00  0.00000000E+00  0.00000000E+00
  0.00000000E+00  0.00000000E+00  0.00000000E+00
  0.00000000E+00  0.00000000E+00  0.00000000E+00
  0.00000000E+00  0.00000000E+00  0.00000000E+00
  0.00000000E+00  0.00000000E+00  0.00000000E+00
  0.00000000E+00  0.00000000E+00  0.00000000E+00
  0.00000000E+00  0.00000000E+00  0.00000000E+00
  0.00000000E+00  0.00000000E+00  0.00000000E+00
  0.00000000E+00  0.00000000E+00  0.00000000E+00
  0.00000000E+00  0.00000000E+00  0.00000000E+00
  0.00000000E+00  0.00000000E+00  0.00000000E+00
  0.00000000E+00  0.00000000E+00  0.00000000E+00
  0.00000000E+00  0.00000000E+00  0.00000000E+00
  0.00000000E+00  0.00000000E+00  0.00000000E+00
  0.00000000E+00  0.00000000E+00  0.00000000E+00
  0.00000000E+00  0.00000000E+00  0.00000000E+00
  0.00000000E+00  0.00000000E+00  0.00000000E+00
  0.00000000E+00  0.00000000E+00  0.00000000E+00
  0.00000000E+00  0.00000000E+00  0.00000000E+00
  0.00000000E+00  0.00000000E+00  0.00000000E+00
  0.00000000E+00  0.00000000E+00  0.00000000E+00
  0.00000000E+00  0.00000000E+00  0.00000000E+00
  0.00000000E+00  0.00000000E+00  0.00000000E+00
  0.00000000E+00  0.00000000E+00  0.00000000E+00
  0.00000000E+00  0.00000000E+00  0.00000000E+00
  0.00000000E+00  0.00000000E+00  0.00000000E+00
  0.00000000E+00  0.00000000E+00  0.00000000E+00
  0.00000000E+00  0.00000000E+00  0.00000000E+00
  0.00000000E+00  0.00000000E+00  0.00000000E+00
  0.00000000E+00  0.00000000E+00  0.00000000E+00
  0.00000000E+00  0.00000000E+00  0.00000000E+00
  0.00000000E+00  0.00000000E+00  0.00000000E+00
  0.00000000E+00  0.00000000E+00  0.00000000E+00
  0.00000000E+00  0.00000000E+00  0.00000000E+00
  0.00000000E+00  0.00000000E+00  0.00000000E+00
  0.00000000E+00  0.00000000E+00  0.00000000E+00
  0.00000000E+00  0.00000000E+00  0.00000000E+00
  0.00000000E+00  0.00000000E+00  0.00000000E+00
  0.00000000E+00  0.00000000E+00  0.00000000E+00
  0.00000000E+00  0.00000000E+00  0.00000000E+00
  0.00000000E+00  0.00000000E+00  0.00000000E+00
  0.00000000E+00  0.00000000E+00  0.00000000E+00
  0.00000000E+00  0.00000000E+00  0.00000000E+00
  0.00000000E+00  0.00000000E+00  0.00000000E+00
  0.00000000E+00  0.00000000E+00  0.00000000E+00
  0.00000000E+00  0.00000000E+00  0.00000000E+00
  0.00000000E+00  0.00000000E+00  0.00000000E+00
  0.00000000E+00  0.00000000E+00  0.00000000E+00
  0.00000000E+00  0.00000000E+00  0.00000000E+00
  0.00000000E+00  0.00000000E+00  0.00000000E+00
  0.00000000E+00  0.00000000E+00  0.00000000E+00
  0.00000000E+00  0.00000000E+00  0.00000000E+00
  0.00000000E+00  0.00000000E+00  0.00000000E+00
  0.00000000E+00  0.00000000E+00  0.00000000E+00
  0.00000000E+00  0.00000000E+00  0.00000000E+00
  0.00000000E+00  0.00000000E+00  0.00000000E+00
  0.00000000E+00  0.00000000E+00  0.00000000E+00
  0.00000000E+00  0.00000000E+00  0.00000000E+00
  0.00000000E+00  0.00000000E+00  0.00000000E+00
  0.00000000E+00  0.00000000E+00  0.00000000E+00
