PREC=Accurate
ENCUT=500
GGA=BO
PARAM1=0.1833333333
PARAM2=0.22
LUSE_VDW=.TRUE.
AGGAC=0.0
ISMEAR=0
IBRION=0
MDALGO=2
ISIF=2
SMASS=1.0
SIGMA=0.1
LREAL=Auto
ISYM=0
TEBEG=300
NSW=5000
POTIM=1.0
NCORE=2
EDIFF=1E-5
NELM=400
ISPIN=2
LCHARG=.FALSE.
LVTOT=.FALSE.
LVHAR=.FALSE.
LWAVE=.FALSE.
