System                                  
   1.0000000000000000     
    10.9872599999999991    0.0000000000000000    0.0000000000000000
     0.0000000000000000   10.9872599999999991    0.0000000000000000
     0.0000000000000000    0.0000000000000000   10.9872599999999991
   Si
    64
Direct
  0.1377068029344815 -0.8287142844205430 -0.6294981358902680
 -0.4711605696579315  0.6681751899117992  0.6189027914259072
  0.9811079687496848  1.0432191214777486 -0.0220528274093811
  0.0844444736637782  1.2227265182551015  0.1627039042021808
  0.4138512703295310  0.4811590019398093  1.1552576914536770
  0.8808977493485183  0.7449501424038409  0.7832923051145492
  0.3504316245237597  0.2907420463971998 -0.3569936784447966
 -0.0217696715856758  1.2652550294259797  0.5488682928242249
 -0.2930325925652074  0.2766301049968097  0.0331908132844328
 -0.6586428109825669  0.1033588627620557  1.2913671513587464
 -0.0469387420504320  0.7469314854324109  0.2409292085368334
  0.2414585933863635 -0.4051339534994381  0.4765995201929294
  0.5252541095552345  0.4023535636816164  0.3840894311356736
 -0.4093877566570894  0.3013740921595711  1.7216715428673850
  0.2099286122766108 -0.0650711628888290 -0.0835639342987978
  0.9879688393541677  0.1555339113507750  0.7568386032654164
  0.0294301857006647 -0.4978038079060527 -0.4129343068356763
  0.2859252220840032  0.3026672914748729  1.9221797637090448
 -0.0952709497852930  0.2866661276127030  0.2719290445134309
 -0.2505949995324286  1.9932738315934930  0.9357267042469321
  0.5322810587823041 -1.0108810203622149  1.1415606824127100
  0.6209246490251411  0.8612673166708977  0.5765057819980973
  0.8039116017357246  0.6512809082565892 -0.4181904158276128
  1.0019679586327583  0.9137855220386923  0.6734275856040253
 -0.7790213292817116  0.9121779450293991 -0.7317167616673222
 -0.2001232261686916 -0.0005237261096614  1.4252507378628412
 -0.0751254589683924  0.4582155803076237 -0.2120630433154483
  0.0566313954889998  0.6598804988643050 -0.1364168670291672
  0.3427553044983487  0.1013583939203295  0.5551640632306766
  0.6711871167820354  0.2529612882784166  0.4030393391287823
  0.0707642745260144  0.4058835507179520  0.9400529695340554
  0.5172259733289080  1.7501278970812251 -0.2028142468695753
  0.4321683329724166  0.1240780822863437  0.7918218891184893
  0.7517009355628501  0.7640026457460944  0.9210776373668161
  0.3112180337622114  0.6595541826218879  0.6663928759897735
 -0.1012277439619169  0.7967673198953894  0.4617105648008756
  1.1686646553814286  0.8127624076819876  0.7416585785172561
  1.1651225033205774  1.1349736474548415 -0.1395764320575664
  1.1701597090845179  0.4730952566102569  0.1206185305082239
  0.8292534481353013  0.3889302255055406  0.5006463779840462
  0.5372815109140460 -0.8195826249855558  0.0122021042005120
  0.3987057955254939 -0.1381737421016188  0.9860855266887250
  0.3497201536426954  0.6946144585398603 -0.6832232518568560
  0.8039584709326419  0.1302044611298548  0.1460265433631719
  1.1018783561494983 -0.1201319180694889 -0.9092331371765615
  0.4932292978429412 -0.5491554696964437  0.5677028438502703
  0.3269683660812787  0.8474066394900374  0.5000179988481247
  0.2139198063572600  0.4678213464676699  0.7223421876387586
  0.9522336964689249  0.5385055337065552  0.1786552894523707
 -0.3095535881260472  0.7909466820344889  1.1432100770669598
 -0.2754642802036256  0.4307273290834987  0.8914771029891283
  0.6788308454197756  0.5037999475897479  0.6751480556367728
  1.3074754572558938  0.3526580829425784  0.3359212580337269
  1.5708418741873864 -0.0276408889318854  0.7345565133175279
  0.5230926589241747  0.5526074026593696 -0.0537542177599353
  0.7872487817174485  0.5728825806249310  0.0590634632783622
  0.6445481013852001  0.0672775890607659  0.2959843770020395
  0.5398691590680295  0.6026308382698382  1.3506591091297222
  0.4966621992015330 -0.0189262808258395  0.4649863556088562
  0.3551329622962632  1.2675275942730488  1.1208502314783915
  0.7201883959387092  0.1477095795582060  0.5859978765360153
  1.1548909638993745  0.0091134056596629  1.5021057884754161
  1.3355459091452540  1.6852361515693146  0.0951553385034537
  1.1207485542468603  0.4139502672945811 -0.5985911668473430

 -0.18187989E-02  0.38439385E-02  0.13417845E-01
 -0.84832691E-02 -0.32369771E-02 -0.13913237E-01
  0.26471574E-02 -0.47532936E-02 -0.85499203E-02
  0.81905930E-02  0.11878803E-01 -0.28441357E-02
  0.13725941E-03 -0.32631788E-02  0.18448274E-02
  0.45648028E-02 -0.17116511E-02  0.58299586E-02
 -0.41640736E-02  0.37384823E-03 -0.57642778E-02
  0.61938219E-02 -0.92671014E-02  0.43314317E-02
  0.58393222E-02  0.50889225E-02  0.64474320E-02
 -0.79393294E-02 -0.15299698E-01  0.34129465E-03
  0.48865861E-02  0.34404072E-02 -0.35698341E-02
 -0.10771172E-01  0.75565928E-02 -0.13456215E-01
  0.42492910E-02 -0.62013775E-02 -0.82692648E-03
  0.41581784E-02 -0.14169855E-01 -0.95399706E-02
  0.15861730E-02 -0.83080780E-03  0.19274361E-02
 -0.33528828E-03  0.14295020E-01  0.28428568E-02
  0.37214318E-02 -0.92177829E-02 -0.12553896E-01
  0.71757168E-02  0.18816051E-04 -0.93858323E-03
 -0.15634787E-01  0.25304376E-02  0.53960810E-02
  0.12313121E-01  0.18790917E-02 -0.51670790E-02
  0.55158136E-02 -0.16903195E-02 -0.62164291E-02
 -0.16032430E-01 -0.23637117E-02 -0.46564395E-02
 -0.99566537E-03  0.98800277E-03  0.80657058E-02
  0.27813437E-02  0.38941551E-02 -0.39342221E-02
  0.30353052E-03 -0.65485276E-02  0.15167089E-01
  0.87920583E-02  0.30644156E-03  0.38719918E-02
 -0.27407441E-02 -0.11625431E-01  0.55521467E-02
 -0.21808790E-02  0.68287476E-02 -0.28661677E-02
 -0.64378123E-03 -0.99982806E-02 -0.11773289E-01
 -0.10618171E-01 -0.43631949E-02  0.14715967E-02
  0.75328918E-02  0.25963167E-03 -0.11121782E-02
  0.11201462E-01 -0.59603212E-02 -0.51330250E-02
  0.11419805E-01  0.37567503E-02 -0.16986392E-01
  0.46051027E-03  0.44463172E-02 -0.18955240E-02
  0.71239687E-02  0.17985471E-02 -0.60736297E-02
  0.33297026E-02  0.63016203E-02  0.39291839E-02
 -0.41752976E-02 -0.50509429E-02  0.12554531E-02
  0.86774543E-03 -0.15507506E-01  0.15784144E-02
 -0.13029779E-01 -0.10513235E-02  0.43122579E-02
 -0.82491899E-02 -0.54518999E-02 -0.59856958E-02
 -0.22588885E-02  0.22366026E-02 -0.69491316E-03
 -0.29626453E-02  0.70662486E-03  0.41711965E-02
 -0.29324121E-02  0.19308127E-02 -0.25717059E-02
  0.41306372E-02 -0.43378929E-02  0.90627665E-02
 -0.91504268E-02  0.30005518E-02  0.16146026E-02
  0.98855234E-02  0.31370609E-03  0.11233428E-01
 -0.10729220E-01  0.44991090E-02 -0.63764925E-02
 -0.31783263E-02  0.88842776E-02  0.37861860E-02
 -0.11778520E-01 -0.10904031E-01 -0.11099568E-03
 -0.29715257E-02  0.66187310E-02  0.65553448E-02
 -0.44110861E-02  0.89844812E-02  0.75764585E-02
  0.15987833E-01 -0.68248518E-02  0.11457869E-01
  0.54360584E-02 -0.19550316E-02  0.62938199E-02
 -0.11573852E-01  0.11777394E-01 -0.10831422E-01
 -0.48694532E-02 -0.32003138E-02 -0.45564025E-03
  0.69118810E-02  0.38817011E-03  0.13030946E-02
  0.11581204E-01  0.13011558E-01 -0.51829796E-02
 -0.37827120E-02  0.90955889E-02  0.31720407E-02
  0.14104925E-01  0.17635519E-02 -0.41981610E-02
 -0.61652018E-02 -0.36541798E-02  0.10142674E-01
 -0.80161738E-03 -0.54290629E-02  0.14981062E-01
 -0.16893086E-02  0.28246199E-02  0.42628693E-02
 -0.70177156E-02  0.19951822E-01  0.94847735E-03
  0.10552176E-02 -0.16051480E-02 -0.99655150E-02

           1
   1.0000000000000000     
 -0.13085735E+01  0.36321030E-02  0.39020956E-02 -0.13123406E+01
  0.13754127E+00  0.17163557E+00  0.37172308E+00
  0.52806733E+00  0.66788058E+00  0.61763649E+00
  0.98134890E+00  0.42786503E-01  0.97716901E+00
  0.85189936E-01  0.22380766E+00  0.16244505E+00
  0.41386376E+00  0.48086201E+00  0.15542560E+00
  0.88131321E+00  0.74479436E+00  0.78382292E+00
  0.35005263E+00  0.29077607E+00  0.64248169E+00
  0.97879406E+00  0.26441159E+00  0.54926252E+00
  0.70749887E+00  0.27709327E+00  0.33777623E-01
  0.34063459E+00  0.10196637E+00  0.29139821E+00
  0.95350601E+00  0.74724461E+00  0.24060430E+00
  0.24047826E+00  0.59555381E+00  0.47537481E+00
  0.52564086E+00  0.40178915E+00  0.38401417E+00
  0.59099070E+00  0.30008443E+00  0.72080327E+00
  0.21007298E+00  0.93485322E+00  0.91661149E+00
  0.98793832E+00  0.15683497E+00  0.75709734E+00
  0.29768890E-01  0.50135724E+00  0.58592311E+00
  0.28657832E+00  0.30266900E+00  0.92209434E+00
  0.90330606E+00  0.28689643E+00  0.27242017E+00
  0.75052567E+00  0.99344486E+00  0.93525643E+00
  0.53278308E+00  0.98896514E+00  0.14099490E+00
  0.61946547E+00  0.86105218E+00  0.57608198E+00
  0.80382098E+00  0.65137083E+00  0.58254368E+00
  0.22211012E-02  0.91413995E+00  0.67306951E+00
  0.22100630E+00  0.91158193E+00  0.26966366E+00
  0.80067698E+00  0.99950416E+00  0.42560315E+00
  0.92462509E+00  0.45715750E+00  0.78844228E+00
  0.56432904E-01  0.66050201E+00  0.86332227E+00
  0.34269671E+00  0.10044841E+00  0.55409252E+00
  0.67022071E+00  0.25256417E+00  0.40317328E+00
  0.71449877E-01  0.40590718E+00  0.93995175E+00
  0.51824547E+00  0.74958542E+00  0.79671857E+00
  0.43320770E+00  0.12442000E+00  0.79027588E+00
  0.75174285E+00  0.76440733E+00  0.92090512E+00
  0.31186642E+00  0.65971788E+00  0.66584009E+00
  0.89907531E+00  0.79734086E+00  0.46206818E+00
  0.16828464E+00  0.81230270E+00  0.74177284E+00
  0.16520148E+00  0.13356224E+00  0.86056723E+00
  0.16897381E+00  0.47299957E+00  0.12101101E+00
  0.82850265E+00  0.38843402E+00  0.50010159E+00
  0.53707592E+00  0.18062094E+00  0.12138857E-01
  0.39843615E+00  0.86189057E+00  0.98646517E+00
  0.34945326E+00  0.69479019E+00  0.31654269E+00
  0.80433442E+00  0.12980965E+00  0.14685139E+00
  0.10104553E+00  0.88014118E+00  0.90913815E-01
  0.49412902E+00  0.45087308E+00  0.56872525E+00
  0.32599185E+00  0.84781612E+00  0.49943765E+00
  0.21363053E+00  0.46862994E+00  0.72268679E+00
  0.95116168E+00  0.53751311E+00  0.17864519E+00
  0.69017596E+00  0.79154908E+00  0.14380671E+00
  0.72413425E+00  0.43154505E+00  0.89216667E+00
  0.68028597E+00  0.50317879E+00  0.67619089E+00
  0.30797022E+00  0.35248015E+00  0.33649409E+00
  0.56978849E+00  0.97343102E+00  0.73357070E+00
  0.52264947E+00  0.55231613E+00  0.94620431E+00
  0.78787786E+00  0.57291791E+00  0.59182064E-01
  0.64560216E+00  0.68461830E-01  0.29551265E+00
  0.53952488E+00  0.60345867E+00  0.35094781E+00
  0.49794595E+00  0.98123423E+00  0.46460426E+00
  0.35457184E+00  0.26719501E+00  0.12177336E+00
  0.72011544E+00  0.14721546E+00  0.58736137E+00
  0.15473721E+00  0.93704870E-02  0.50249377E+00
  0.33490720E+00  0.68705206E+00  0.95241664E-01
  0.12084459E+00  0.41380418E+00  0.40050183E+00
  0.00000000E+00  0.00000000E+00  0.00000000E+00
  0.00000000E+00  0.00000000E+00  0.00000000E+00
  0.00000000E+00  0.00000000E+00  0.00000000E+00
  0.00000000E+00  0.00000000E+00  0.00000000E+00
  0.00000000E+00  0.00000000E+00  0.00000000E+00
  0.00000000E+00  0.00000000E+00  0.00000000E+00
  0.00000000E+00  0.00000000E+00  0.00000000E+00
  0.00000000E+00  0.00000000E+00  0.00000000E+00
  0.00000000E+00  0.00000000E+00  0.00000000E+00
  0.00000000E+00  0.00000000E+00  0.00000000E+00
  0.00000000E+00  0.00000000E+00  0.00000000E+00
  0.00000000E+00  0.00000000E+00  0.00000000E+00
  0.00000000E+00  0.00000000E+00  0.00000000E+00
  0.00000000E+00  0.00000000E+00  0.00000000E+00
  0.00000000E+00  0.00000000E+00  0.00000000E+00
  0.00000000E+00  0.00000000E+00  0.00000000E+00
  0.00000000E+00  0.00000000E+00  0.00000000E+00
  0.00000000E+00  0.00000000E+00  0.00000000E+00
  0.00000000E+00  0.00000000E+00  0.00000000E+00
  0.00000000E+00  0.00000000E+00  0.00000000E+00
  0.00000000E+00  0.00000000E+00  0.00000000E+00
  0.00000000E+00  0.00000000E+00  0.00000000E+00
  0.00000000E+00  0.00000000E+00  0.00000000E+00
  0.00000000E+00  0.00000000E+00  0.00000000E+00
  0.00000000E+00  0.00000000E+00  0.00000000E+00
  0.00000000E+00  0.00000000E+00  0.00000000E+00
  0.00000000E+00  0.00000000E+00  0.00000000E+00
  0.00000000E+00  0.00000000E+00  0.00000000E+00
  0.00000000E+00  0.00000000E+00  0.00000000E+00
  0.00000000E+00  0.00000000E+00  0.00000000E+00
  0.00000000E+00  0.00000000E+00  0.00000000E+00
  0.00000000E+00  0.00000000E+00  0.00000000E+00
  0.00000000E+00  0.00000000E+00  0.00000000E+00
  0.00000000E+00  0.00000000E+00  0.00000000E+00
  0.00000000E+00  0.00000000E+00  0.00000000E+00
  0.00000000E+00  0.00000000E+00  0.00000000E+00
  0.00000000E+00  0.00000000E+00  0.00000000E+00
  0.00000000E+00  0.00000000E+00  0.00000000E+00
  0.00000000E+00  0.00000000E+00  0.00000000E+00
  0.00000000E+00  0.00000000E+00  0.00000000E+00
  0.00000000E+00  0.00000000E+00  0.00000000E+00
  0.00000000E+00  0.00000000E+00  0.00000000E+00
  0.00000000E+00  0.00000000E+00  0.00000000E+00
  0.00000000E+00  0.00000000E+00  0.00000000E+00
  0.00000000E+00  0.00000000E+00  0.00000000E+00
  0.00000000E+00  0.00000000E+00  0.00000000E+00
  0.00000000E+00  0.00000000E+00  0.00000000E+00
  0.00000000E+00  0.00000000E+00  0.00000000E+00
  0.00000000E+00  0.00000000E+00  0.00000000E+00
  0.00000000E+00  0.00000000E+00  0.00000000E+00
  0.00000000E+00  0.00000000E+00  0.00000000E+00
  0.00000000E+00  0.00000000E+00  0.00000000E+00
  0.00000000E+00  0.00000000E+00  0.00000000E+00
  0.00000000E+00  0.00000000E+00  0.00000000E+00
  0.00000000E+00  0.00000000E+00  0.00000000E+00
  0.00000000E+00  0.00000000E+00  0.00000000E+00
  0.00000000E+00  0.00000000E+00  0.00000000E+00
  0.00000000E+00  0.00000000E+00  0.00000000E+00
  0.00000000E+00  0.00000000E+00  0.00000000E+00
  0.00000000E+00  0.00000000E+00  0.00000000E+00
  0.00000000E+00  0.00000000E+00  0.00000000E+00
  0.00000000E+00  0.00000000E+00  0.00000000E+00
  0.00000000E+00  0.00000000E+00  0.00000000E+00
  0.00000000E+00  0.00000000E+00  0.00000000E+00
  0.00000000E+00  0.00000000E+00  0.00000000E+00
  0.00000000E+00  0.00000000E+00  0.00000000E+00
  0.00000000E+00  0.00000000E+00  0.00000000E+00
  0.00000000E+00  0.00000000E+00  0.00000000E+00
  0.00000000E+00  0.00000000E+00  0.00000000E+00
  0.00000000E+00  0.00000000E+00  0.00000000E+00
  0.00000000E+00  0.00000000E+00  0.00000000E+00
  0.00000000E+00  0.00000000E+00  0.00000000E+00
  0.00000000E+00  0.00000000E+00  0.00000000E+00
  0.00000000E+00  0.00000000E+00  0.00000000E+00
  0.00000000E+00  0.00000000E+00  0.00000000E+00
  0.00000000E+00  0.00000000E+00  0.00000000E+00
  0.00000000E+00  0.00000000E+00  0.00000000E+00
  0.00000000E+00  0.00000000E+00  0.00000000E+00
  0.00000000E+00  0.00000000E+00  0.00000000E+00
  0.00000000E+00  0.00000000E+00  0.00000000E+00
  0.00000000E+00  0.00000000E+00  0.00000000E+00
  0.00000000E+00  0.00000000E+00  0.00000000E+00
  0.00000000E+00  0.00000000E+00  0.00000000E+00
  0.00000000E+00  0.00000000E+00  0.00000000E+00
  0.00000000E+00  0.00000000E+00  0.00000000E+00
  0.00000000E+00  0.00000000E+00  0.00000000E+00
  0.00000000E+00  0.00000000E+00  0.00000000E+00
  0.00000000E+00  0.00000000E+00  0.00000000E+00
  0.00000000E+00  0.00000000E+00  0.00000000E+00
  0.00000000E+00  0.00000000E+00  0.00000000E+00
  0.00000000E+00  0.00000000E+00  0.00000000E+00
  0.00000000E+00  0.00000000E+00  0.00000000E+00
  0.00000000E+00  0.00000000E+00  0.00000000E+00
  0.00000000E+00  0.00000000E+00  0.00000000E+00
  0.00000000E+00  0.00000000E+00  0.00000000E+00
  0.00000000E+00  0.00000000E+00  0.00000000E+00
  0.00000000E+00  0.00000000E+00  0.00000000E+00
  0.00000000E+00  0.00000000E+00  0.00000000E+00
  0.00000000E+00  0.00000000E+00  0.00000000E+00
  0.00000000E+00  0.00000000E+00  0.00000000E+00
  0.00000000E+00  0.00000000E+00  0.00000000E+00
  0.00000000E+00  0.00000000E+00  0.00000000E+00
  0.00000000E+00  0.00000000E+00  0.00000000E+00
  0.00000000E+00  0.00000000E+00  0.00000000E+00
  0.00000000E+00  0.00000000E+00  0.00000000E+00
  0.00000000E+00  0.00000000E+00  0.00000000E+00
  0.00000000E+00  0.00000000E+00  0.00000000E+00
  0.00000000E+00  0.00000000E+00  0.00000000E+00
  0.00000000E+00  0.00000000E+00  0.00000000E+00
  0.00000000E+00  0.00000000E+00  0.00000000E+00
  0.00000000E+00  0.00000000E+00  0.00000000E+00
  0.00000000E+00  0.00000000E+00  0.00000000E+00
  0.00000000E+00  0.00000000E+00  0.00000000E+00
  0.00000000E+00  0.00000000E+00  0.00000000E+00
  0.00000000E+00  0.00000000E+00  0.00000000E+00
  0.00000000E+00  0.00000000E+00  0.00000000E+00
  0.00000000E+00  0.00000000E+00  0.00000000E+00
  0.00000000E+00  0.00000000E+00  0.00000000E+00
  0.00000000E+00  0.00000000E+00  0.00000000E+00
  0.00000000E+00  0.00000000E+00  0.00000000E+00
  0.00000000E+00  0.00000000E+00  0.00000000E+00
  0.00000000E+00  0.00000000E+00  0.00000000E+00
  0.00000000E+00  0.00000000E+00  0.00000000E+00
  0.00000000E+00  0.00000000E+00  0.00000000E+00
  0.00000000E+00  0.00000000E+00  0.00000000E+00
  0.00000000E+00  0.00000000E+00  0.00000000E+00
  0.00000000E+00  0.00000000E+00  0.00000000E+00
  0.00000000E+00  0.00000000E+00  0.00000000E+00
