System
1.0
10.98726 0.0 0.0
0.0 10.98726 0.0
0.0 0.0 10.98726
Si 
64 
direct
0.125 0.375 0.125 Si
0.125 0.375 0.625 Si
0.125 0.875 0.125 Si
0.125 0.875 0.625 Si
0.625 0.375 0.125 Si
0.625 0.375 0.625 Si
0.625 0.875 0.125 Si
0.625 0.875 0.625 Si
0.0 0.0 0.25 Si
0.0 0.0 0.75 Si
0.0 0.5 0.25 Si
0.0 0.5 0.75 Si
0.5 0.0 0.25 Si
0.5 0.0 0.75 Si
0.5 0.5 0.25 Si
0.5 0.5 0.75 Si
0.125 0.125 0.375 Si
0.125 0.125 0.875 Si
0.125 0.625 0.375 Si
0.125 0.625 0.875 Si
0.625 0.125 0.375 Si
0.625 0.125 0.875 Si
0.625 0.625 0.375 Si
0.625 0.625 0.875 Si
0.0 0.25 0.0 Si
0.0 0.25 0.5 Si
0.0 0.75 0.0 Si
0.0 0.75 0.5 Si
0.5 0.25 0.0 Si
0.5 0.25 0.5 Si
0.5 0.75 0.0 Si
0.5 0.75 0.5 Si
0.375 0.375 0.375 Si
0.375 0.375 0.875 Si
0.375 0.875 0.375 Si
0.375 0.875 0.875 Si
0.875 0.375 0.375 Si
0.875 0.375 0.875 Si
0.875 0.875 0.375 Si
0.875 0.875 0.875 Si
0.25 0.0 0.0 Si
0.25 0.0 0.5 Si
0.25 0.5 0.0 Si
0.25 0.5 0.5 Si
0.75 0.0 0.0 Si
0.75 0.0 0.5 Si
0.75 0.5 0.0 Si
0.75 0.5 0.5 Si
0.375 0.125 0.125 Si
0.375 0.125 0.625 Si
0.375 0.625 0.125 Si
0.375 0.625 0.625 Si
0.875 0.125 0.125 Si
0.875 0.125 0.625 Si
0.875 0.625 0.125 Si
0.875 0.625 0.625 Si
0.25 0.25 0.25 Si
0.25 0.25 0.75 Si
0.25 0.75 0.25 Si
0.25 0.75 0.75 Si
0.75 0.25 0.25 Si
0.75 0.25 0.75 Si
0.75 0.75 0.25 Si
0.75 0.75 0.75 Si
