FCC Al
1.0
4.06741 0.0 0.0
0.0 4.06741 0.0
0.0 0.0 4.06741
Al
4
direct
0.0 0.0 0.0 
0.0 0.5 0.5 
0.5 0.0 0.5 
0.5 0.5 0.0 

